networks/zoo_78_397/zoo_78_397.txt
Number of groups: 63
Flow 7: {10 8} {8 54} 
Flow 10: {10 17} {17 12} 
Flow 15: {6 19} {19 65} 
Flow 21: {1 29} {29 28} {28 74} 
Flow 27: {2 3} {3 49} 
Flow 30: {2 1} {1 10} {10 7} 
Flow 39: {2 23} {23 69} 
Flow 52: {3 1} {1 30} 
Flow 54: {3 23} {23 32} 
Flow 71: {5 6} {6 10} 
Flow 76: {5 7} 
Flow 91: {7 10} {10 1} {1 3} 
Flow 100: {7 13} {13 4} {4 31} 
Flow 104: {8 13} {13 6} {6 52} 
Flow 105: {8 10} {10 56} 
Flow 124: {17 18} 
Flow 130: {1 4} {4 32} 
Flow 131: {12 17} {17 63} 
Flow 134: {4 1} {1 47} 
Flow 142: {13 18} {18 12} {12 58} 
Flow 143: {13 26} {26 16} 
Flow 149: {18 30} {30 24} {24 70} 
Flow 162: {16 26} {26 13} {13 8} 
Flow 169: {16 17} {17 29} {29 23} 
Flow 179: {17 10} {10 6} {6 5} {5 51} 
Flow 201: {18 29} {29 1} {1 2} {2 48} 
Flow 208: {6 9} {9 55} 
Flow 215: {18 16} {16 22} {22 68} 
Flow 219: {18 26} {26 27} {27 73} 
Flow 220: {18 17} {17 28} 
Flow 223: {18 31} 
Flow 234: {19 6} {6 13} 
Flow 240: {20 17} 
Flow 242: {21 17} 
Flow 245: {22 17} {17 31} {31 4} {4 50} 
Flow 250: {22 16} {16 18} 
Flow 265: {23 29} {29 18} {18 64} 
Flow 268: {23 30} 
Flow 272: {24 23} {23 3} 
Flow 276: {23 1} 
Flow 277: {24 30} {30 18} {18 13} {13 59} 
Flow 281: {30 17} {17 26} {26 72} 
Flow 289: {25 26} 
Flow 301: {26 18} 
Flow 312: {27 26} {26 17} 
Flow 315: {28 17} {17 30} {30 76} 
Flow 316: {28 29} {29 32} {32 78} 
Flow 333: {17 20} {20 66} 
Flow 340: {29 30} 
Flow 341: {29 31} 
Flow 350: {30 23} 
Flow 352: {30 29} 
Flow 353: {30 1} {1 31} 
Flow 363: {10 9} 
Flow 367: {31 17} {17 16} {16 62} 
Flow 369: {31 18} 
Flow 373: {31 1} {1 23} {23 24} 
Flow 377: {31 29} {29 75} 
Flow 379: {31 32} 
Flow 381: {32 23} {23 2} 
Flow 385: {32 4} {4 13} {13 7} {7 53} 
Flow 392: {32 29} {29 17} {17 22} 
Flow 397: {32 31} {31 77} 
Time taken running everything: 3 seconds
